; PUSH 0x00 DUP1 DUP3 EQ ISZERO => PUSH 0x00 DUP1 DUP3 GT
(set-option :produce-proofs true)
; 
(set-info :status unknown)
(declare-fun storage_t ((_ BitVec 256) Int (_ BitVec 256)) (_ BitVec 256))
(declare-fun storage_s ((_ BitVec 256) Int (_ BitVec 256)) (_ BitVec 256))
(declare-fun exc_halt_t (Int) Bool)
(declare-fun exc_halt_s (Int) Bool)
(declare-fun stack_t ((_ BitVec 256) Int (_ BitVec 6)) (_ BitVec 256))
(declare-fun stack_s ((_ BitVec 256) Int (_ BitVec 6)) (_ BitVec 256))
(declare-fun sc_t (Int) (_ BitVec 6))
(declare-fun sc_s (Int) (_ BitVec 6))
(declare-fun used_gas_t ((_ BitVec 256) Int) Int)
(declare-fun used_gas_s ((_ BitVec 256) Int) Int)
(assert
 (exists ((x_0 (_ BitVec 256)) )(let (($x6153 (forall ((w (_ BitVec 256)) )(let ((?x1879 (storage_t x_0 4 w)))
 (let ((?x4110 (storage_s x_0 5 w)))
 (= ?x4110 ?x1879))))
 ))
 (let (($x7722 (exc_halt_t 4)))
 (let (($x11317 (exc_halt_s 5)))
 (let (($x9884 (= $x11317 $x7722)))
 (let (($x10063 (forall ((n (_ BitVec 6)) )(let ((?x2221 (stack_t x_0 4 n)))
 (let ((?x4611 (stack_s x_0 5 n)))
 (let (($x6601 (= ?x4611 ?x2221)))
 (let ((?x11631 (sc_t 4)))
 (let (($x5427 (bvsle ?x11631 n)))
 (or $x5427 $x6601)))))))
 ))
 (let ((?x11631 (sc_t 4)))
 (let ((?x4319 (sc_s 5)))
 (let (($x9491 (= ?x4319 ?x11631)))
 (let ((?x11161 (used_gas_t x_0 0)))
 (let ((?x6133 (used_gas_s x_0 0)))
 (let (($x10245 (= ?x6133 ?x11161)))
 (let (($x4521 (forall ((w (_ BitVec 256)) )(let ((?x9094 (storage_t x_0 0 w)))
 (let ((?x828 (storage_s x_0 0 w)))
 (= ?x828 ?x9094))))
 ))
 (let (($x56 (exc_halt_t 0)))
 (let (($x57 (exc_halt_s 0)))
 (let (($x58 (= $x57 $x56)))
 (let (($x51 (forall ((n (_ BitVec 6)) )(let ((?x63 (sc_t 0)))
 (let (($x3267 (bvsle ?x63 n)))
 (let ((?x11774 (stack_t x_0 0 n)))
 (let ((?x7914 (stack_s x_0 0 n)))
 (let (($x2328 (= ?x7914 ?x11774)))
 (or $x2328 $x3267)))))))
 ))
 (let ((?x63 (sc_t 0)))
 (let ((?x72 (sc_s 0)))
 (let (($x73 (= ?x72 ?x63)))
 (let (($x11108 (= $x7722 (or (exc_halt_t 3) (not (bvsle (_ bv0 6) (bvadd (_ bv62 6) (sc_t 3))))))))
 (let (($x6928 (forall ((w (_ BitVec 256)) )(let ((?x202 (storage_t x_0 3 w)))
 (let ((?x1879 (storage_t x_0 4 w)))
 (= ?x1879 ?x202))))
 ))
 (let (($x2764 (forall ((n (_ BitVec 6)) )(let ((?x6438 (sc_t 3)))
 (let ((?x6551 (bvadd (_ bv62 6) ?x6438)))
 (let (($x5161 (bvsle ?x6551 n)))
 (or (= (stack_t x_0 4 n) (stack_t x_0 3 n)) $x5161)))))
 ))
 (let ((?x6438 (sc_t 3)))
 (let ((?x11838 (bvadd (_ bv63 6) ?x6438)))
 (let (($x2243 (= ?x11631 ?x11838)))
 (let ((?x837 (stack_t x_0 3 ?x11838)))
 (let (($x3875 (= (stack_t x_0 4 (bvadd (_ bv63 6) ?x11631)) (ite (bvule ?x837 (stack_t x_0 3 (bvadd (_ bv62 6) ?x6438))) (_ bv0 256) (_ bv1 256)))))
 (let (($x8325 (not (= ((_ extract 6 6) (bvadd (_ bv1 7) (concat (_ bv0 1) (sc_t 2)))) (_ bv0 1)))))
 (let (($x5252 (exc_halt_t 2)))
 (let (($x6783 (exc_halt_t 3)))
 (let (($x4916 (forall ((w (_ BitVec 256)) )(let ((?x7575 (storage_t x_0 2 w)))
 (let ((?x202 (storage_t x_0 3 w)))
 (= ?x202 ?x7575))))
 ))
 (let (($x395 (forall ((n (_ BitVec 6)) )(or (bvsle (bvadd (_ bv61 6) (sc_t 2)) n) (= (stack_t x_0 3 n) (stack_t x_0 2 n))))
 ))
 (let (($x7159 (= ?x6438 (bvadd (_ bv1 6) (sc_t 2)))))
 (let ((?x2714 (sc_t 2)))
 (let ((?x5743 (bvadd (_ bv63 6) ?x2714)))
 (let ((?x10401 (stack_t x_0 2 ?x5743)))
 (let (($x1680 (= (stack_t x_0 3 (bvadd (_ bv62 6) ?x2714)) (stack_t x_0 2 (bvadd (_ bv62 6) ?x2714)))))
 (let ((?x7020 (bvadd (_ bv61 6) ?x2714)))
 (let ((?x5076 (stack_t x_0 2 ?x7020)))
 (let (($x3508 (exc_halt_t 1)))
 (let (($x1972 (not (= ((_ extract 6 6) (bvadd (_ bv1 7) (concat (_ bv0 1) (sc_t 1)))) (_ bv0 1)))))
 (let (($x1091 (forall ((w (_ BitVec 256)) )(let ((?x1800 (storage_t x_0 1 w)))
 (let ((?x7575 (storage_t x_0 2 w)))
 (= ?x7575 ?x1800))))
 ))
 (let (($x2077 (forall ((n (_ BitVec 6)) )(let ((?x1559 (stack_t x_0 1 n)))
 (let ((?x2274 (stack_t x_0 2 n)))
 (let (($x1498 (= ?x2274 ?x1559)))
 (or $x1498 (bvsle (bvadd (_ bv63 6) (sc_t 1)) n))))))
 ))
 (let (($x1064 (= ?x2714 (bvadd (_ bv1 6) (sc_t 1)))))
 (let ((?x4657 (used_gas_t x_0 2)))
 (let (($x9670 (= ?x4657 (+ 3 (used_gas_t x_0 1)))))
 (let ((?x8347 (sc_t 1)))
 (let ((?x401 (bvadd (_ bv63 6) ?x8347)))
 (let ((?x1486 (stack_t x_0 1 ?x401)))
 (let (($x1228 (= (stack_t x_0 2 ?x401) ?x1486)))
 (let (($x9448 (= $x3508 (or $x56 (not (= ((_ extract 6 6) (bvadd (_ bv1 7) (concat (_ bv0 1) ?x63))) (_ bv0 1)))))))
 (let (($x5547 (forall ((w (_ BitVec 256)) )(let ((?x9094 (storage_t x_0 0 w)))
 (let ((?x1800 (storage_t x_0 1 w)))
 (= ?x1800 ?x9094))))
 ))
 (let (($x6953 (forall ((n (_ BitVec 6)) )(let ((?x63 (sc_t 0)))
 (let (($x3267 (bvsle ?x63 n)))
 (or (= (stack_t x_0 1 n) (stack_t x_0 0 n)) $x3267))))
 ))
 (let (($x859 (= ?x8347 (bvadd (_ bv1 6) ?x63))))
 (let ((?x2226 (used_gas_t x_0 1)))
 (let (($x4790 (= ?x2226 (+ 3 ?x11161))))
 (let (($x8169 (= (stack_t x_0 1 ?x63) (_ bv0 256))))
 (let (($x10749 (= $x11317 (or (exc_halt_s 4) (not (bvsle (_ bv0 6) (bvadd (_ bv63 6) (sc_s 4))))))))
 (let (($x6173 (forall ((w (_ BitVec 256)) )(let ((?x5964 (storage_s x_0 4 w)))
 (let ((?x4110 (storage_s x_0 5 w)))
 (= ?x4110 ?x5964))))
 ))
 (let (($x5613 (forall ((n (_ BitVec 6)) )(or (bvsle (bvadd (_ bv63 6) (sc_s 4)) n) (= (stack_s x_0 5 n) (stack_s x_0 4 n))))
 ))
 (let ((?x4305 (sc_s 4)))
 (let (($x1334 (= ?x4319 ?x4305)))
 (let (($x5447 (= (stack_s x_0 5 (bvadd (_ bv63 6) ?x4319)) (ite (= (stack_s x_0 4 (bvadd (_ bv63 6) ?x4305)) (_ bv0 256)) (_ bv1 256) (_ bv0 256)))))
 (let (($x7172 (exc_halt_s 4)))
 (let (($x4030 (= $x7172 (or (exc_halt_s 3) (not (bvsle (_ bv0 6) (bvadd (_ bv62 6) (sc_s 3))))))))
 (let (($x2453 (forall ((w (_ BitVec 256)) )(let ((?x8993 (storage_s x_0 3 w)))
 (let ((?x5964 (storage_s x_0 4 w)))
 (= ?x5964 ?x8993))))
 ))
 (let (($x7106 (forall ((n (_ BitVec 6)) )(let ((?x275 (sc_s 3)))
 (let ((?x10732 (bvadd (_ bv62 6) ?x275)))
 (let (($x7977 (bvsle ?x10732 n)))
 (or $x7977 (= (stack_s x_0 4 n) (stack_s x_0 3 n)))))))
 ))
 (let ((?x275 (sc_s 3)))
 (let ((?x6354 (bvadd (_ bv63 6) ?x275)))
 (let (($x3487 (= ?x4305 ?x6354)))
 (let ((?x2277 (used_gas_s x_0 4)))
 (let (($x6705 (= ?x2277 (+ 3 (used_gas_s x_0 3)))))
 (let ((?x6293 (ite (= (stack_s x_0 3 ?x6354) (stack_s x_0 3 (bvadd (_ bv62 6) ?x275))) (_ bv1 256) (_ bv0 256))))
 (let ((?x4062 (bvadd (_ bv63 6) ?x4305)))
 (let ((?x9804 (stack_s x_0 4 ?x4062)))
 (let (($x9346 (not (bvsle (_ bv0 6) (bvadd (_ bv61 6) (sc_s 2))))))
 (let (($x247 (exc_halt_s 2)))
 (let (($x2182 (or $x247 (not (= ((_ extract 6 6) (bvadd (_ bv1 7) (concat (_ bv0 1) (sc_s 2)))) (_ bv0 1))) $x9346)))
 (let (($x292 (exc_halt_s 3)))
 (let (($x8464 (= $x292 $x2182)))
 (let (($x10487 (forall ((w (_ BitVec 256)) )(let ((?x2842 (storage_s x_0 2 w)))
 (let ((?x8993 (storage_s x_0 3 w)))
 (= ?x8993 ?x2842))))
 ))
 (let (($x457 (forall ((n (_ BitVec 6)) )(let ((?x218 (sc_s 2)))
 (let ((?x971 (bvadd (_ bv61 6) ?x218)))
 (let (($x4870 (bvsle ?x971 n)))
 (or (= (stack_s x_0 3 n) (stack_s x_0 2 n)) $x4870)))))
 ))
 (let (($x2920 (= ?x275 (bvadd (_ bv1 6) (sc_s 2)))))
 (let ((?x8092 (used_gas_s x_0 3)))
 (let (($x9418 (= ?x8092 (+ 3 (used_gas_s x_0 2)))))
 (let ((?x218 (sc_s 2)))
 (let ((?x4506 (bvadd (_ bv63 6) ?x218)))
 (let ((?x1248 (stack_s x_0 2 ?x4506)))
 (let (($x9683 (= (stack_s x_0 3 ?x4506) ?x1248)))
 (let (($x7066 (= (stack_s x_0 3 (bvadd (_ bv62 6) ?x218)) (stack_s x_0 2 (bvadd (_ bv62 6) ?x218)))))
 (let ((?x971 (bvadd (_ bv61 6) ?x218)))
 (let ((?x11564 (stack_s x_0 2 ?x971)))
 (let (($x3645 (= (stack_s x_0 3 ?x971) ?x11564)))
 (let ((?x3213 (stack_s x_0 3 ?x6354)))
 (let (($x6631 (= ?x3213 ?x11564)))
 (let (($x2919 (not (= ((_ extract 6 6) (bvadd (_ bv1 7) (concat (_ bv0 1) (sc_s 1)))) (_ bv0 1)))))
 (let (($x189 (exc_halt_s 1)))
 (let (($x3512 (= $x247 (or $x189 $x2919 (not (bvsle (_ bv0 6) (bvadd (_ bv63 6) (sc_s 1))))))))
 (let (($x635 (forall ((w (_ BitVec 256)) )(let ((?x862 (storage_s x_0 1 w)))
 (let ((?x2842 (storage_s x_0 2 w)))
 (= ?x2842 ?x862))))
 ))
 (let (($x3938 (forall ((n (_ BitVec 6)) )(or (= (stack_s x_0 2 n) (stack_s x_0 1 n)) (bvsle (bvadd (_ bv63 6) (sc_s 1)) n)))
 ))
 (let (($x1224 (= ?x218 (bvadd (_ bv1 6) (sc_s 1)))))
 (let ((?x6707 (used_gas_s x_0 2)))
 (let (($x10085 (= ?x6707 (+ 3 (used_gas_s x_0 1)))))
 (let ((?x154 (sc_s 1)))
 (let ((?x7858 (bvadd (_ bv63 6) ?x154)))
 (let ((?x9803 (stack_s x_0 1 ?x7858)))
 (let (($x5737 (= (stack_s x_0 2 ?x7858) ?x9803)))
 (let (($x11300 (= ?x1248 ?x9803)))
 (let (($x722 (= $x189 (or $x57 (not (= ((_ extract 6 6) (bvadd (_ bv1 7) (concat (_ bv0 1) ?x72))) (_ bv0 1)))))))
 (let (($x4545 (forall ((w (_ BitVec 256)) )(let ((?x828 (storage_s x_0 0 w)))
 (let ((?x862 (storage_s x_0 1 w)))
 (= ?x862 ?x828))))
 ))
 (let (($x1103 (forall ((n (_ BitVec 6)) )(or (bvsle (sc_s 0) n) (= (stack_s x_0 1 n) (stack_s x_0 0 n))))
 ))
 (let (($x7884 (= ?x154 (bvadd (_ bv1 6) ?x72))))
 (let ((?x5685 (used_gas_s x_0 1)))
 (let (($x3582 (= ?x5685 (+ 3 ?x6133))))
 (let (($x8842 (= (stack_s x_0 1 ?x72) (_ bv0 256))))
 (let (($x7073 (forall ((w (_ BitVec 256)) )(let ((?x828 (storage_s x_0 0 w)))
 (= ?x828 (_ bv0 256))))
 ))
 (let (($x1388 (= ?x6133 0)))
 (let (($x2751 (not $x57)))
 (let (($x6195 (= (stack_s x_0 0 (_ bv0 6)) x_0)))
 (let (($x8685 (= ?x72 (_ bv1 6))))
 (and $x8685 $x6195 $x2751 $x1388 $x7073 $x8842 $x3582 $x7884 $x1103 $x4545 $x722 $x11300 $x5737 $x10085 $x1224 $x3938 $x635 $x3512 $x6631 $x3645 $x7066 $x9683 $x9418 $x2920 $x457 $x10487 $x8464 (= ?x9804 ?x6293) $x6705 $x3487 $x7106 $x2453 $x4030 $x5447 (= (used_gas_s x_0 5) (+ 3 ?x2277)) $x1334 $x5613 $x6173 $x10749 $x8169 $x4790 $x859 $x6953 $x5547 $x9448 (= ?x10401 ?x1486) $x1228 $x9670 $x1064 $x2077 $x1091 (= $x5252 (or (not (bvsle (_ bv0 6) ?x401)) $x1972 $x3508)) (= ?x837 ?x5076) (= (stack_t x_0 3 ?x7020) ?x5076) $x1680 (= (stack_t x_0 3 ?x5743) ?x10401) (= (used_gas_t x_0 3) (+ 3 ?x4657)) $x7159 $x395 $x4916 (= $x6783 (or $x5252 (not (bvsle (_ bv0 6) ?x7020)) $x8325)) $x3875 (= (used_gas_t x_0 4) (+ 3 (used_gas_t x_0 3))) $x2243 $x2764 $x6928 $x11108 $x73 $x51 $x58 $x4521 $x10245 (not (and $x9491 $x10063 $x9884 $x6153))))))))))))))))))))))))))))))))))))))))))))))))))))))))))))))))))))))))))))))))))))))))))))))))))))))))))))))))))))))))))))
 )
(check-sat)
(get-proof)
